c "68148.clq"
p edge 100 1344
e 1 17
e 1 18
e 1 19
e 1 20
e 1 22
e 1 24
e 1 25
e 1 26
e 1 27
e 1 28
e 1 29
e 1 31
e 1 36
e 1 43
e 1 45
e 1 61
e 1 63
e 1 67
e 1 71
e 1 77
e 1 83
e 1 85
e 1 92
e 1 94
e 2 17
e 2 18
e 2 19
e 2 20
e 2 21
e 2 22
e 2 24
e 2 25
e 2 26
e 2 27
e 2 31
e 2 33
e 2 35
e 2 39
e 2 41
e 2 43
e 2 47
e 2 48
e 2 53
e 2 55
e 2 56
e 2 59
e 2 68
e 2 81
e 2 82
e 2 87
e 2 92
e 2 99
e 3 17
e 3 18
e 3 19
e 3 22
e 3 25
e 3 31
e 3 32
e 3 43
e 3 71
e 4 17
e 4 18
e 4 19
e 4 20
e 4 21
e 4 22
e 4 23
e 4 24
e 4 25
e 4 26
e 4 28
e 4 29
e 4 30
e 4 31
e 4 40
e 4 41
e 4 43
e 4 44
e 4 50
e 4 51
e 4 53
e 4 57
e 4 58
e 4 61
e 4 63
e 4 64
e 4 65
e 4 66
e 4 72
e 4 82
e 4 83
e 4 98
e 5 17
e 5 19
e 5 20
e 5 21
e 5 22
e 5 23
e 5 26
e 5 27
e 5 28
e 5 29
e 5 30
e 5 33
e 5 34
e 5 35
e 5 36
e 5 41
e 5 43
e 5 46
e 5 48
e 5 54
e 5 56
e 5 62
e 5 68
e 5 72
e 5 82
e 5 91
e 5 94
e 6 17
e 6 18
e 6 19
e 6 20
e 6 21
e 6 22
e 6 23
e 6 25
e 6 28
e 6 29
e 6 32
e 6 33
e 6 36
e 6 40
e 6 41
e 6 42
e 6 46
e 6 50
e 6 57
e 6 58
e 6 63
e 6 66
e 6 67
e 6 71
e 6 78
e 6 88
e 6 97
e 6 98
e 7 17
e 7 18
e 7 20
e 7 21
e 7 26
e 7 29
e 7 30
e 7 34
e 7 36
e 7 38
e 7 40
e 7 43
e 7 44
e 7 45
e 7 50
e 7 68
e 7 69
e 7 71
e 7 72
e 7 77
e 7 79
e 7 88
e 7 92
e 7 98
e 8 17
e 8 18
e 8 19
e 8 20
e 8 21
e 8 22
e 8 23
e 8 24
e 8 27
e 8 31
e 8 42
e 8 50
e 8 54
e 8 55
e 8 65
e 8 66
e 8 73
e 8 98
e 9 17
e 9 18
e 9 19
e 9 20
e 9 21
e 9 22
e 9 23
e 9 24
e 9 25
e 9 27
e 9 35
e 9 37
e 9 38
e 9 39
e 9 41
e 9 44
e 9 45
e 9 52
e 9 57
e 9 61
e 9 62
e 9 64
e 9 75
e 9 79
e 9 83
e 9 91
e 10 17
e 10 18
e 10 19
e 10 20
e 10 22
e 10 23
e 10 24
e 10 25
e 10 26
e 10 27
e 10 28
e 10 30
e 10 33
e 10 38
e 10 43
e 10 45
e 10 47
e 10 48
e 10 59
e 10 60
e 10 67
e 10 70
e 10 78
e 10 83
e 10 87
e 10 92
e 10 94
e 10 95
e 10 96
e 11 17
e 11 18
e 11 19
e 11 20
e 11 21
e 11 22
e 11 23
e 11 25
e 11 26
e 11 27
e 11 29
e 11 30
e 11 31
e 11 37
e 11 40
e 11 42
e 11 46
e 11 47
e 11 48
e 11 55
e 11 56
e 11 59
e 11 60
e 11 61
e 11 70
e 11 71
e 11 77
e 11 85
e 11 95
e 12 17
e 12 18
e 12 20
e 12 23
e 12 24
e 12 30
e 12 32
e 12 38
e 12 39
e 12 77
e 12 79
e 12 92
e 12 95
e 13 17
e 13 18
e 13 19
e 13 21
e 13 22
e 13 24
e 13 32
e 13 34
e 13 36
e 13 38
e 13 39
e 13 40
e 13 46
e 13 51
e 13 53
e 13 54
e 13 59
e 13 60
e 13 61
e 13 75
e 13 76
e 13 77
e 13 84
e 13 90
e 13 91
e 13 92
e 13 95
e 13 97
e 13 99
e 13 100
e 14 17
e 14 18
e 14 19
e 14 20
e 14 21
e 14 23
e 14 28
e 14 30
e 14 32
e 14 35
e 14 37
e 14 47
e 14 55
e 14 93
e 14 98
e 14 99
e 15 17
e 15 18
e 15 19
e 15 21
e 15 23
e 15 24
e 15 26
e 15 27
e 15 28
e 15 29
e 15 32
e 15 34
e 15 47
e 15 54
e 15 57
e 15 65
e 15 73
e 15 83
e 16 17
e 16 18
e 16 19
e 16 20
e 16 21
e 16 35
e 16 36
e 16 37
e 16 38
e 16 43
e 16 44
e 16 47
e 16 48
e 16 58
e 16 62
e 16 68
e 16 73
e 16 87
e 16 99
e 17 18
e 17 19
e 17 20
e 17 21
e 17 22
e 17 23
e 17 24
e 17 25
e 17 26
e 17 28
e 17 29
e 17 30
e 17 31
e 17 33
e 17 34
e 17 36
e 17 39
e 17 40
e 17 42
e 17 43
e 17 44
e 17 45
e 17 46
e 17 49
e 17 50
e 17 51
e 17 55
e 17 56
e 17 58
e 17 59
e 17 66
e 17 72
e 17 76
e 17 81
e 17 82
e 17 83
e 17 84
e 17 85
e 17 87
e 17 89
e 17 93
e 17 97
e 17 99
e 17 100
e 18 19
e 18 20
e 18 21
e 18 22
e 18 23
e 18 24
e 18 25
e 18 26
e 18 27
e 18 28
e 18 29
e 18 30
e 18 31
e 18 32
e 18 33
e 18 34
e 18 35
e 18 37
e 18 38
e 18 39
e 18 40
e 18 42
e 18 44
e 18 46
e 18 47
e 18 48
e 18 49
e 18 52
e 18 53
e 18 55
e 18 58
e 18 59
e 18 61
e 18 62
e 18 64
e 18 68
e 18 70
e 18 72
e 18 81
e 18 82
e 18 84
e 18 86
e 18 93
e 18 94
e 19 20
e 19 21
e 19 22
e 19 23
e 19 24
e 19 25
e 19 26
e 19 27
e 19 29
e 19 30
e 19 31
e 19 32
e 19 33
e 19 34
e 19 38
e 19 43
e 19 47
e 19 49
e 19 50
e 19 52
e 19 53
e 19 54
e 19 56
e 19 58
e 19 60
e 19 64
e 19 65
e 19 66
e 19 73
e 19 74
e 19 77
e 19 79
e 19 80
e 19 81
e 19 82
e 19 84
e 19 85
e 19 87
e 19 90
e 19 96
e 19 97
e 19 99
e 20 21
e 20 22
e 20 23
e 20 24
e 20 25
e 20 26
e 20 27
e 20 28
e 20 29
e 20 30
e 20 31
e 20 32
e 20 33
e 20 34
e 20 35
e 20 36
e 20 38
e 20 39
e 20 40
e 20 41
e 20 42
e 20 44
e 20 46
e 20 50
e 20 51
e 20 52
e 20 54
e 20 56
e 20 57
e 20 59
e 20 62
e 20 64
e 20 65
e 20 66
e 20 67
e 20 74
e 20 75
e 20 77
e 20 81
e 20 82
e 20 85
e 20 86
e 20 93
e 21 22
e 21 23
e 21 24
e 21 25
e 21 26
e 21 27
e 21 28
e 21 32
e 21 33
e 21 34
e 21 35
e 21 36
e 21 37
e 21 38
e 21 39
e 21 40
e 21 44
e 21 47
e 21 48
e 21 49
e 21 51
e 21 52
e 21 53
e 21 55
e 21 56
e 21 57
e 21 61
e 21 62
e 21 63
e 21 66
e 21 67
e 21 68
e 21 69
e 21 70
e 21 73
e 21 78
e 21 83
e 21 84
e 21 85
e 21 86
e 21 87
e 21 93
e 21 94
e 21 97
e 21 98
e 21 99
e 22 23
e 22 24
e 22 25
e 22 26
e 22 27
e 22 28
e 22 29
e 22 30
e 22 31
e 22 33
e 22 34
e 22 36
e 22 37
e 22 41
e 22 42
e 22 43
e 22 45
e 22 47
e 22 48
e 22 50
e 22 52
e 22 61
e 22 62
e 22 63
e 22 64
e 22 65
e 22 70
e 22 72
e 22 73
e 22 75
e 22 77
e 22 80
e 22 82
e 22 83
e 22 87
e 22 88
e 22 91
e 22 92
e 22 94
e 22 100
e 23 24
e 23 25
e 23 26
e 23 29
e 23 32
e 23 33
e 23 34
e 23 36
e 23 38
e 23 39
e 23 41
e 23 42
e 23 43
e 23 44
e 23 46
e 23 47
e 23 48
e 23 49
e 23 52
e 23 54
e 23 56
e 23 58
e 23 60
e 23 66
e 23 70
e 23 80
e 23 82
e 23 86
e 23 87
e 23 92
e 23 96
e 24 25
e 24 26
e 24 27
e 24 28
e 24 30
e 24 32
e 24 33
e 24 34
e 24 35
e 24 36
e 24 37
e 24 38
e 24 41
e 24 42
e 24 49
e 24 52
e 24 55
e 24 56
e 24 58
e 24 59
e 24 62
e 24 67
e 24 72
e 24 74
e 24 79
e 24 80
e 24 83
e 24 85
e 24 87
e 24 98
e 24 100
e 25 27
e 25 28
e 25 29
e 25 31
e 25 35
e 25 39
e 25 44
e 25 45
e 25 47
e 25 48
e 25 51
e 25 54
e 25 56
e 25 59
e 25 60
e 25 61
e 25 62
e 25 65
e 25 68
e 25 74
e 25 75
e 25 78
e 25 81
e 25 88
e 25 91
e 25 92
e 25 93
e 25 94
e 26 27
e 26 28
e 26 30
e 26 31
e 26 33
e 26 34
e 26 35
e 26 36
e 26 37
e 26 38
e 26 44
e 26 45
e 26 48
e 26 50
e 26 51
e 26 52
e 26 53
e 26 55
e 26 58
e 26 59
e 26 60
e 26 61
e 26 69
e 26 71
e 26 75
e 26 78
e 26 86
e 26 87
e 26 90
e 26 91
e 26 92
e 26 94
e 26 97
e 27 28
e 27 29
e 27 30
e 27 31
e 27 33
e 27 35
e 27 36
e 27 37
e 27 42
e 27 44
e 27 46
e 27 49
e 27 53
e 27 56
e 27 67
e 27 69
e 27 71
e 27 73
e 27 74
e 27 75
e 27 76
e 27 77
e 27 78
e 27 80
e 27 81
e 27 85
e 27 86
e 27 88
e 27 91
e 28 29
e 28 30
e 28 32
e 28 33
e 28 35
e 28 36
e 28 37
e 28 39
e 28 40
e 28 41
e 28 45
e 28 46
e 28 48
e 28 50
e 28 51
e 28 52
e 28 53
e 28 57
e 28 58
e 28 63
e 28 65
e 28 69
e 28 70
e 28 71
e 28 73
e 28 80
e 28 83
e 28 92
e 28 94
e 28 99
e 29 31
e 29 32
e 29 34
e 29 37
e 29 39
e 29 41
e 29 42
e 29 45
e 29 49
e 29 54
e 29 57
e 29 59
e 29 60
e 29 64
e 29 66
e 29 69
e 29 76
e 29 79
e 29 85
e 29 98
e 30 31
e 30 32
e 30 33
e 30 34
e 30 35
e 30 36
e 30 37
e 30 38
e 30 39
e 30 42
e 30 44
e 30 45
e 30 46
e 30 48
e 30 50
e 30 53
e 30 55
e 30 62
e 30 63
e 30 68
e 30 69
e 30 70
e 30 75
e 30 78
e 30 79
e 30 86
e 30 89
e 30 90
e 30 91
e 30 92
e 30 98
e 30 99
e 31 32
e 31 34
e 31 35
e 31 40
e 31 43
e 31 45
e 31 48
e 31 49
e 31 53
e 31 54
e 31 60
e 31 67
e 31 71
e 31 72
e 31 74
e 31 77
e 31 80
e 31 93
e 31 98
e 32 37
e 32 38
e 32 39
e 32 40
e 32 41
e 32 43
e 32 44
e 32 45
e 32 47
e 32 50
e 32 57
e 32 59
e 32 60
e 32 62
e 32 64
e 32 66
e 32 70
e 32 72
e 32 74
e 32 81
e 32 84
e 32 86
e 32 88
e 32 91
e 32 93
e 32 95
e 32 96
e 32 100
e 33 37
e 33 38
e 33 40
e 33 41
e 33 42
e 33 45
e 33 47
e 33 49
e 33 52
e 33 54
e 33 55
e 33 59
e 33 60
e 33 64
e 33 65
e 33 70
e 33 72
e 33 75
e 33 78
e 33 83
e 33 84
e 33 88
e 33 90
e 33 92
e 33 94
e 33 98
e 34 35
e 34 40
e 34 46
e 34 59
e 34 60
e 34 61
e 34 62
e 34 67
e 34 68
e 34 69
e 34 71
e 34 74
e 34 86
e 34 94
e 34 97
e 34 99
e 35 41
e 35 42
e 35 43
e 35 46
e 35 50
e 35 54
e 35 55
e 35 58
e 35 63
e 35 64
e 35 70
e 35 72
e 35 78
e 35 84
e 35 90
e 35 91
e 35 94
e 36 37
e 36 39
e 36 57
e 36 65
e 36 66
e 36 73
e 36 84
e 36 86
e 36 87
e 37 39
e 37 40
e 37 41
e 37 47
e 37 50
e 37 51
e 37 56
e 37 65
e 37 68
e 37 79
e 37 80
e 37 88
e 38 40
e 38 44
e 38 46
e 38 49
e 38 50
e 38 53
e 38 57
e 38 58
e 38 73
e 38 75
e 38 77
e 38 84
e 38 90
e 38 94
e 39 41
e 39 42
e 39 45
e 39 48
e 39 49
e 39 56
e 39 57
e 39 60
e 39 61
e 39 63
e 39 72
e 39 73
e 39 79
e 39 80
e 39 81
e 39 83
e 39 84
e 39 93
e 40 42
e 40 45
e 40 46
e 40 52
e 40 55
e 40 64
e 40 65
e 40 68
e 40 76
e 40 80
e 40 88
e 40 89
e 40 98
e 41 43
e 41 51
e 41 53
e 41 55
e 41 63
e 41 67
e 41 69
e 41 70
e 41 72
e 41 76
e 41 91
e 42 44
e 42 50
e 42 51
e 42 57
e 42 63
e 42 67
e 42 74
e 42 76
e 42 81
e 42 83
e 42 84
e 42 89
e 42 93
e 42 95
e 43 48
e 43 49
e 43 52
e 43 53
e 43 57
e 43 60
e 43 62
e 43 67
e 43 68
e 43 85
e 43 90
e 43 100
e 44 49
e 44 51
e 44 56
e 44 61
e 44 62
e 44 63
e 44 76
e 44 79
e 44 85
e 44 87
e 44 91
e 44 98
e 44 100
e 45 46
e 45 47
e 45 49
e 45 51
e 45 54
e 45 63
e 45 69
e 45 70
e 45 71
e 45 75
e 45 85
e 45 93
e 45 94
e 45 97
e 46 49
e 46 51
e 46 52
e 46 54
e 46 56
e 46 65
e 46 68
e 46 69
e 46 72
e 46 73
e 46 82
e 46 88
e 46 90
e 46 91
e 46 96
e 47 51
e 47 55
e 47 58
e 47 62
e 47 70
e 47 75
e 47 80
e 47 81
e 47 89
e 48 52
e 48 53
e 48 54
e 48 56
e 48 59
e 48 65
e 48 71
e 48 72
e 48 76
e 48 84
e 48 100
e 49 53
e 49 60
e 49 66
e 49 67
e 49 69
e 49 74
e 49 83
e 49 89
e 50 51
e 50 57
e 50 70
e 50 71
e 50 75
e 50 86
e 51 52
e 51 55
e 51 58
e 51 62
e 51 64
e 51 68
e 51 73
e 51 81
e 51 82
e 51 88
e 51 93
e 51 94
e 51 95
e 51 96
e 51 100
e 52 54
e 52 58
e 52 60
e 52 64
e 52 65
e 52 69
e 52 78
e 52 80
e 52 82
e 52 88
e 52 89
e 52 90
e 53 66
e 53 67
e 53 73
e 53 76
e 53 78
e 53 100
e 54 61
e 54 63
e 54 64
e 54 65
e 54 75
e 54 84
e 54 93
e 55 66
e 55 71
e 55 74
e 55 95
e 56 57
e 56 58
e 56 59
e 56 63
e 56 64
e 56 67
e 56 73
e 56 75
e 56 89
e 56 99
e 57 61
e 57 73
e 57 76
e 57 78
e 57 81
e 57 88
e 58 64
e 58 66
e 58 69
e 58 76
e 58 77
e 58 79
e 58 82
e 58 94
e 58 97
e 59 74
e 59 76
e 59 96
e 59 98
e 60 61
e 60 63
e 60 68
e 60 78
e 60 79
e 60 83
e 60 85
e 60 90
e 60 96
e 61 70
e 61 71
e 61 74
e 61 78
e 61 95
e 61 96
e 61 99
e 62 79
e 62 80
e 62 86
e 62 88
e 62 89
e 62 96
e 62 100
e 63 66
e 63 77
e 63 82
e 63 86
e 63 90
e 63 95
e 64 67
e 64 68
e 64 69
e 64 78
e 64 86
e 64 89
e 64 96
e 65 69
e 65 71
e 65 74
e 65 75
e 65 87
e 65 93
e 65 100
e 66 79
e 66 82
e 66 89
e 67 79
e 67 80
e 67 87
e 67 97
e 68 74
e 68 77
e 68 95
e 68 97
e 68 98
e 68 99
e 69 72
e 69 74
e 69 76
e 69 80
e 69 92
e 69 97
e 71 84
e 71 89
e 71 95
e 71 96
e 71 97
e 72 90
e 73 76
e 73 77
e 73 80
e 73 86
e 73 89
e 73 90
e 73 93
e 74 78
e 74 85
e 74 87
e 74 91
e 74 99
e 75 76
e 75 87
e 75 88
e 75 89
e 75 95
e 75 97
e 76 77
e 76 79
e 76 82
e 76 85
e 76 89
e 76 92
e 76 95
e 77 81
e 77 97
e 78 81
e 78 84
e 78 85
e 79 86
e 79 90
e 79 91
e 80 81
e 81 89
e 81 95
e 82 83
e 82 98
e 83 96
e 84 93
e 85 88
e 85 90
e 86 92
e 86 95
e 87 91
e 88 99
e 89 97
e 90 96
e 91 100
e 93 96
e 94 96
e 94 99
e 96 100
e 98 100
e 99 100
